NAME: tsp_408
COMMENT: Random TSP instance
TYPE: TSP
DIMENSION: 50
EDGE_WEIGHT_TYPE: EUC_2D
NODE_COORD_SECTION
1 238 357
2 589 715
3 204 641
4 160 89
5 521 222
6 638 388
7 678 196
8 204 917
9 502 389
10 289 362
11 837 795
12 424 162
13 519 6
14 122 885
15 871 723
16 701 621
17 68 271
18 7 489
19 486 896
20 155 147
21 359 427
22 779 438
23 652 816
24 388 728
25 315 405
26 922 605
27 656 934
28 915 515
29 700 991
30 347 546
31 621 754
32 608 374
33 149 127
34 796 459
35 65 643
36 1 375
37 28 46
38 268 479
39 791 809
40 72 875
41 951 719
42 69 307
43 131 65
44 98 127
45 766 16
46 914 489
47 765 259
48 965 683
49 201 340
50 450 488
